DIMENSION: 8
EDGE_WEIGHT_TYPE: EXPLICIT
EDGE_WEIGHT_FORMAT: FULL_MATRIX
EDGE_WEIGHT_SECTION:
32767 32767 32767 50 46 32767 32767 33 
32767 32767 23 32767 32767 32767 32767 66 
32767 23 32767 66 3 32767 32767 73 
50 32767 66 32767 32767 32767 32767 32767 
46 32767 3 32767 32767 32767 32767 16 
32767 32767 32767 32767 32767 32767 32767 32767 
32767 32767 32767 32767 32767 32767 32767 32767 
33 66 73 32767 16 32767 32767 32767 
EOF